% Auto-generated by scripts/generate_dzn.py
% problem_type   = regex
% instance       = regex_5
% source_json    = instances_json/1_medium_blowup/regex_5.json
% blowup         = 6.925
% representation = DFA

mode = 0;

var_count = 31;
Q = 277;
S = 3;
q0 = 1;
F = {190, 191, 192, 193, 194, 195, 196, 197, 198, 199, 200, 201, 202, 203, 204, 205, 206, 207, 208, 209, 210, 211, 212, 213, 214, 215, 216, 217, 218, 219, 220, 221, 222, 223, 224, 225, 226, 227, 228, 229, 230, 231, 232, 233, 234, 235, 236, 237, 238, 239, 240, 241, 242, 243, 244, 245, 246, 247, 248, 249, 250, 251, 252, 253, 254, 255, 256, 257, 258, 259, 260, 261, 262, 263, 264, 265, 266, 267, 268, 269, 270, 271, 272, 273, 274, 275, 276, 277};
d_dfa = array2d(1..277, 1..3, [
  2, 1, 1,
  2, 1, 3,
  2, 4, 1,
  6, 5, 5,
  8, 7, 7,
  8, 7, 9,
  11, 10, 10,
  11, 10, 12,
  11, 13, 10,
  15, 14, 14,
  15, 14, 16,
  15, 17, 14,
  19, 18, 18,
  21, 20, 20,
  21, 20, 22,
  21, 23, 20,
  25, 24, 24,
  27, 26, 26,
  27, 26, 28,
  30, 29, 29,
  30, 29, 31,
  30, 32, 29,
  34, 33, 33,
  36, 35, 35,
  36, 35, 37,
  39, 38, 38,
  39, 38, 40,
  39, 41, 38,
  43, 42, 42,
  43, 42, 44,
  43, 45, 42,
  47, 46, 46,
  49, 48, 48,
  49, 48, 50,
  52, 51, 51,
  52, 51, 53,
  52, 54, 51,
  56, 55, 55,
  56, 55, 57,
  56, 58, 55,
  60, 59, 59,
  62, 61, 61,
  62, 61, 63,
  62, 64, 61,
  66, 65, 65,
  68, 67, 67,
  68, 67, 69,
  71, 70, 70,
  71, 70, 72,
  71, 73, 70,
  75, 74, 74,
  75, 74, 76,
  75, 77, 74,
  79, 78, 78,
  81, 80, 80,
  81, 80, 82,
  81, 83, 80,
  85, 84, 84,
  87, 86, 86,
  87, 86, 88,
  90, 89, 89,
  90, 89, 91,
  90, 92, 89,
  94, 93, 93,
  96, 95, 95,
  96, 95, 97,
  99, 98, 98,
  99, 98, 100,
  99, 101, 98,
  103, 102, 102,
  103, 102, 104,
  103, 105, 102,
  107, 106, 106,
  109, 108, 108,
  109, 108, 110,
  109, 111, 108,
  113, 112, 112,
  115, 114, 114,
  115, 114, 116,
  118, 117, 117,
  118, 117, 119,
  118, 120, 117,
  122, 121, 121,
  124, 123, 123,
  124, 123, 125,
  127, 126, 126,
  127, 126, 128,
  127, 129, 126,
  131, 130, 130,
  131, 130, 132,
  131, 133, 130,
  135, 134, 134,
  137, 136, 136,
  137, 136, 138,
  140, 139, 139,
  140, 139, 141,
  140, 142, 139,
  144, 143, 143,
  144, 143, 145,
  144, 146, 143,
  148, 147, 147,
  150, 149, 149,
  150, 149, 151,
  150, 152, 149,
  154, 153, 153,
  156, 155, 155,
  156, 155, 157,
  159, 158, 158,
  159, 158, 160,
  159, 161, 158,
  163, 162, 162,
  165, 164, 164,
  165, 164, 166,
  168, 167, 167,
  168, 167, 169,
  168, 170, 167,
  172, 171, 171,
  172, 171, 173,
  172, 174, 171,
  176, 175, 175,
  178, 177, 177,
  178, 177, 179,
  181, 180, 180,
  181, 180, 182,
  181, 183, 180,
  185, 184, 184,
  185, 184, 186,
  185, 187, 184,
  189, 188, 188,
  191, 190, 190,
  191, 190, 192,
  191, 193, 190,
  195, 194, 194,
  197, 196, 196,
  197, 196, 198,
  200, 199, 199,
  200, 199, 201,
  200, 202, 199,
  204, 203, 203,
  204, 203, 205,
  204, 206, 203,
  208, 207, 207,
  210, 209, 209,
  210, 209, 211,
  210, 212, 209,
  214, 213, 213,
  216, 215, 215,
  216, 215, 217,
  219, 218, 218,
  219, 218, 220,
  219, 221, 218,
  223, 222, 222,
  225, 224, 224,
  225, 224, 226,
  228, 227, 227,
  228, 227, 229,
  228, 230, 227,
  232, 231, 231,
  232, 231, 233,
  232, 234, 231,
  236, 235, 235,
  238, 237, 237,
  238, 237, 239,
  241, 240, 240,
  241, 240, 242,
  241, 243, 240,
  245, 244, 244,
  245, 244, 246,
  245, 247, 244,
  249, 248, 248,
  251, 250, 250,
  251, 250, 252,
  251, 253, 250,
  255, 254, 254,
  257, 256, 256,
  257, 256, 258,
  260, 259, 259,
  260, 259, 261,
  260, 262, 259,
  264, 263, 263,
  264, 263, 265,
  264, 266, 263,
  268, 267, 267,
  270, 269, 269,
  270, 269, 271,
  270, 272, 269,
  274, 273, 273,
  276, 275, 275,
  276, 275, 277,
  2, 1, 1,
  2, 1, 3,
  2, 4, 1,
  6, 5, 5,
  8, 7, 7,
  8, 7, 9,
  11, 10, 10,
  11, 10, 12,
  11, 13, 10,
  15, 14, 14,
  15, 14, 16,
  15, 17, 14,
  19, 18, 18,
  21, 20, 20,
  21, 20, 22,
  21, 23, 20,
  25, 24, 24,
  27, 26, 26,
  27, 26, 28,
  30, 29, 29,
  30, 29, 31,
  30, 32, 29,
  34, 33, 33,
  36, 35, 35,
  36, 35, 37,
  39, 38, 38,
  39, 38, 40,
  39, 41, 38,
  43, 42, 42,
  43, 42, 44,
  43, 45, 42,
  47, 46, 46,
  49, 48, 48,
  49, 48, 50,
  52, 51, 51,
  52, 51, 53,
  52, 54, 51,
  56, 55, 55,
  56, 55, 57,
  56, 58, 55,
  60, 59, 59,
  62, 61, 61,
  62, 61, 63,
  62, 64, 61,
  66, 65, 65,
  68, 67, 67,
  68, 67, 69,
  71, 70, 70,
  71, 70, 72,
  71, 73, 70,
  75, 74, 74,
  75, 74, 76,
  75, 77, 74,
  79, 78, 78,
  81, 80, 80,
  81, 80, 82,
  81, 83, 80,
  85, 84, 84,
  87, 86, 86,
  87, 86, 88,
  90, 89, 89,
  90, 89, 91,
  90, 92, 89,
  94, 93, 93,
  96, 95, 95,
  96, 95, 97,
  99, 98, 98,
  99, 98, 100,
  99, 101, 98,
  103, 102, 102,
  103, 102, 104,
  103, 105, 102,
  107, 106, 106,
  109, 108, 108,
  109, 108, 110,
  109, 111, 108,
  113, 112, 112,
  115, 114, 114,
  115, 114, 116,
  118, 117, 117,
  118, 117, 119,
  118, 120, 117,
  122, 121, 121,
  124, 123, 123,
  124, 123, 125,
  127, 126, 126,
  127, 126, 128,
  127, 129, 126
]);
d_nfa = array2d(1..277, 1..3, [
  {}, {}, {},
  {}, {}, {},
  {}, {}, {},
  {}, {}, {},
  {}, {}, {},
  {}, {}, {},
  {}, {}, {},
  {}, {}, {},
  {}, {}, {},
  {}, {}, {},
  {}, {}, {},
  {}, {}, {},
  {}, {}, {},
  {}, {}, {},
  {}, {}, {},
  {}, {}, {},
  {}, {}, {},
  {}, {}, {},
  {}, {}, {},
  {}, {}, {},
  {}, {}, {},
  {}, {}, {},
  {}, {}, {},
  {}, {}, {},
  {}, {}, {},
  {}, {}, {},
  {}, {}, {},
  {}, {}, {},
  {}, {}, {},
  {}, {}, {},
  {}, {}, {},
  {}, {}, {},
  {}, {}, {},
  {}, {}, {},
  {}, {}, {},
  {}, {}, {},
  {}, {}, {},
  {}, {}, {},
  {}, {}, {},
  {}, {}, {},
  {}, {}, {},
  {}, {}, {},
  {}, {}, {},
  {}, {}, {},
  {}, {}, {},
  {}, {}, {},
  {}, {}, {},
  {}, {}, {},
  {}, {}, {},
  {}, {}, {},
  {}, {}, {},
  {}, {}, {},
  {}, {}, {},
  {}, {}, {},
  {}, {}, {},
  {}, {}, {},
  {}, {}, {},
  {}, {}, {},
  {}, {}, {},
  {}, {}, {},
  {}, {}, {},
  {}, {}, {},
  {}, {}, {},
  {}, {}, {},
  {}, {}, {},
  {}, {}, {},
  {}, {}, {},
  {}, {}, {},
  {}, {}, {},
  {}, {}, {},
  {}, {}, {},
  {}, {}, {},
  {}, {}, {},
  {}, {}, {},
  {}, {}, {},
  {}, {}, {},
  {}, {}, {},
  {}, {}, {},
  {}, {}, {},
  {}, {}, {},
  {}, {}, {},
  {}, {}, {},
  {}, {}, {},
  {}, {}, {},
  {}, {}, {},
  {}, {}, {},
  {}, {}, {},
  {}, {}, {},
  {}, {}, {},
  {}, {}, {},
  {}, {}, {},
  {}, {}, {},
  {}, {}, {},
  {}, {}, {},
  {}, {}, {},
  {}, {}, {},
  {}, {}, {},
  {}, {}, {},
  {}, {}, {},
  {}, {}, {},
  {}, {}, {},
  {}, {}, {},
  {}, {}, {},
  {}, {}, {},
  {}, {}, {},
  {}, {}, {},
  {}, {}, {},
  {}, {}, {},
  {}, {}, {},
  {}, {}, {},
  {}, {}, {},
  {}, {}, {},
  {}, {}, {},
  {}, {}, {},
  {}, {}, {},
  {}, {}, {},
  {}, {}, {},
  {}, {}, {},
  {}, {}, {},
  {}, {}, {},
  {}, {}, {},
  {}, {}, {},
  {}, {}, {},
  {}, {}, {},
  {}, {}, {},
  {}, {}, {},
  {}, {}, {},
  {}, {}, {},
  {}, {}, {},
  {}, {}, {},
  {}, {}, {},
  {}, {}, {},
  {}, {}, {},
  {}, {}, {},
  {}, {}, {},
  {}, {}, {},
  {}, {}, {},
  {}, {}, {},
  {}, {}, {},
  {}, {}, {},
  {}, {}, {},
  {}, {}, {},
  {}, {}, {},
  {}, {}, {},
  {}, {}, {},
  {}, {}, {},
  {}, {}, {},
  {}, {}, {},
  {}, {}, {},
  {}, {}, {},
  {}, {}, {},
  {}, {}, {},
  {}, {}, {},
  {}, {}, {},
  {}, {}, {},
  {}, {}, {},
  {}, {}, {},
  {}, {}, {},
  {}, {}, {},
  {}, {}, {},
  {}, {}, {},
  {}, {}, {},
  {}, {}, {},
  {}, {}, {},
  {}, {}, {},
  {}, {}, {},
  {}, {}, {},
  {}, {}, {},
  {}, {}, {},
  {}, {}, {},
  {}, {}, {},
  {}, {}, {},
  {}, {}, {},
  {}, {}, {},
  {}, {}, {},
  {}, {}, {},
  {}, {}, {},
  {}, {}, {},
  {}, {}, {},
  {}, {}, {},
  {}, {}, {},
  {}, {}, {},
  {}, {}, {},
  {}, {}, {},
  {}, {}, {},
  {}, {}, {},
  {}, {}, {},
  {}, {}, {},
  {}, {}, {},
  {}, {}, {},
  {}, {}, {},
  {}, {}, {},
  {}, {}, {},
  {}, {}, {},
  {}, {}, {},
  {}, {}, {},
  {}, {}, {},
  {}, {}, {},
  {}, {}, {},
  {}, {}, {},
  {}, {}, {},
  {}, {}, {},
  {}, {}, {},
  {}, {}, {},
  {}, {}, {},
  {}, {}, {},
  {}, {}, {},
  {}, {}, {},
  {}, {}, {},
  {}, {}, {},
  {}, {}, {},
  {}, {}, {},
  {}, {}, {},
  {}, {}, {},
  {}, {}, {},
  {}, {}, {},
  {}, {}, {},
  {}, {}, {},
  {}, {}, {},
  {}, {}, {},
  {}, {}, {},
  {}, {}, {},
  {}, {}, {},
  {}, {}, {},
  {}, {}, {},
  {}, {}, {},
  {}, {}, {},
  {}, {}, {},
  {}, {}, {},
  {}, {}, {},
  {}, {}, {},
  {}, {}, {},
  {}, {}, {},
  {}, {}, {},
  {}, {}, {},
  {}, {}, {},
  {}, {}, {},
  {}, {}, {},
  {}, {}, {},
  {}, {}, {},
  {}, {}, {},
  {}, {}, {},
  {}, {}, {},
  {}, {}, {},
  {}, {}, {},
  {}, {}, {},
  {}, {}, {},
  {}, {}, {},
  {}, {}, {},
  {}, {}, {},
  {}, {}, {},
  {}, {}, {},
  {}, {}, {},
  {}, {}, {},
  {}, {}, {},
  {}, {}, {},
  {}, {}, {},
  {}, {}, {},
  {}, {}, {},
  {}, {}, {},
  {}, {}, {},
  {}, {}, {},
  {}, {}, {},
  {}, {}, {},
  {}, {}, {},
  {}, {}, {},
  {}, {}, {},
  {}, {}, {},
  {}, {}, {},
  {}, {}, {},
  {}, {}, {},
  {}, {}, {},
  {}, {}, {},
  {}, {}, {},
  {}, {}, {},
  {}, {}, {},
  {}, {}, {}
]);
